problems/csplib-prob015/SchursLemma-models/01_noch_lvlPruned/O2/minion/model_3-3-20-solution000001.solution
language Essence 1.3

letting boxes be partition({1, 2, 4, 8}, {3, 5, 6, 7, 19, 20}, {9, 10, 11, 12, 13, 14, 15, 16, 17, 18})
$ Visualisation for boxes
$  1  2  4  8
$  3  5  6  7 19 20
$  9 10 11 12 13 14 15 16 17 18

